2 15
160 169 
0 41 43 18 61 29 21 2
1 70 83 86 18 62 55 2
2 35 65 36 44 73 73 2
3 51 90 28 45 59 15 2
4 41 99 17 50 12 47 1
5 44 81 45 27 12 100 1
6 77 40 25 67 25 89 1
7 43 11 83 49 51 49 1
8 6 4 66 71 74 73 1
9 82 25 42 80 19 80 2
10 6 23 91 61 67 38 1
11 6 74 71 85 1 75 1
12 86 87 47 38 11 98 2
13 85 43 26 90 1 90 2
14 30 36 95 62 72 45 2
